c colouring generated by benchmark framework
p edge 95 755
v 1 5
v 2 1
v 3 5
v 4 2
v 5 6
v 6 0
v 7 0
v 8 0
v 9 1
v 10 3
v 11 6
v 12 3
v 13 1
v 14 2
v 15 1
v 16 3
v 17 3
v 18 1
v 19 5
v 20 1
v 21 3
v 22 2
v 23 6
v 24 6
v 25 6
v 26 2
v 27 1
v 28 3
v 29 0
v 30 1
v 31 0
v 32 0
v 33 0
v 34 2
v 35 3
v 36 1
v 37 2
v 38 1
v 39 3
v 40 3
v 41 3
v 42 3
v 43 1
v 44 3
v 45 2
v 46 0
v 47 5
v 48 4
v 49 1
v 50 2
v 51 1
v 52 4
v 53 0
v 54 0
v 55 0
v 56 1
v 57 0
v 58 2
v 59 4
v 60 1
v 61 2
v 62 1
v 63 4
v 64 4
v 65 1
v 66 4
v 67 1
v 68 4
v 69 2
v 70 0
v 71 6
v 72 4
v 73 2
v 74 1
v 75 4
v 76 4
v 77 0
v 78 0
v 79 4
v 80 0
v 81 2
v 82 4
v 83 1
v 84 4
v 85 1
v 86 4
v 87 0
v 88 2
v 89 2
v 90 1
v 91 0
v 92 2
v 93 0
v 94 4
v 95 3
